22 3
3 4 4
0 0 0 0 20 2 3 4 5 6 7 8 9 10 11 12 13 14 15 16 17 18 19 20 21
4 1 2 0 3 22 14 8
3 0 0 0 4 22 11 11 14
3 0 0 2 2 22 18
1 1 1 0 1 22
2 0 0 1 3 22 18 20
5 1 1 0 1 22
5 0 1 0 5 22 13 21 12 18
4 0 0 1 2 22 15
4 1 0 1 2 22 19
4 1 0 2 1 22
1 1 2 2 1 22
5 0 0 2 1 22
5 1 0 1 1 22
1 0 2 2 1 22
1 1 1 0 1 22
5 0 0 0 1 22
4 0 0 1 1 22
5 0 0 2 2 22 20
4 1 1 2 1 22
4 0 1 0 1 22
0 0 0 0 0
